Maximize
  27 x0_0_ + 27 x0_1_ + 27 x0_2_ + 27 x0_3_ + 27 x0_4_ + 27 x0_5_ + 21 x0_6_
   + 6 x0_7_ + 6 x0_8_ + 6 x0_9_ + 9 x1_0_ + 9 x1_1_ + 9 x1_2_ + 9 x1_3_
   + 9 x1_4_ + 9 x1_5_ + 7 x1_6_ + 2 x1_7_ + 2 x1_8_ + 2 x1_9_ + 34 x2_7_
   + 34 x2_8_ + 34 x2_9_ + 9 x3_0_ + 9 x3_1_ + 9 x3_2_ + 9 x3_3_ + 9 x3_4_
   + 9 x3_5_ + 7 x3_6_ + 2 x3_7_ + 2 x3_8_ + 2 x3_9_ + 51 x4_7_ + 51 x4_8_
   + 51 x4_9_ + 9 x5_0_ + 9 x5_1_ + 9 x5_2_ + 9 x5_3_ + 9 x5_4_ + 9 x5_5_
   + 7 x5_6_ + 2 x5_7_ + 2 x5_8_ + 2 x5_9_ + 81 x6_0_ + 81 x6_1_ + 81 x6_2_
   + 81 x6_3_ + 81 x6_4_ + 81 x6_5_ + 63 x6_6_ + 18 x6_7_ + 18 x6_8_
   + 18 x6_9_ + 17 x7_7_ + 17 x7_8_ + 17 x7_9_
Subject To
 R0: x0_0_ + x0_1_ + x0_2_ + x0_3_ + x0_4_ + x0_5_ + x0_6_ + x0_7_ + x0_8_
   + x0_9_ + x0_n_ = 1
 R1: x1_0_ + x1_1_ + x1_2_ + x1_3_ + x1_4_ + x1_5_ + x1_6_ + x1_7_ + x1_8_
   + x1_9_ + x1_n_ = 1
 R2: x2_7_ + x2_8_ + x2_9_ + x2_n_ = 1
 R3: x3_0_ + x3_1_ + x3_2_ + x3_3_ + x3_4_ + x3_5_ + x3_6_ + x3_7_ + x3_8_
   + x3_9_ + x3_n_ = 1
 R4: x4_7_ + x4_8_ + x4_9_ + x4_n_ = 1
 R5: x5_0_ + x5_1_ + x5_2_ + x5_3_ + x5_4_ + x5_5_ + x5_6_ + x5_7_ + x5_8_
   + x5_9_ + x5_n_ = 1
 R6: x6_0_ + x6_1_ + x6_2_ + x6_3_ + x6_4_ + x6_5_ + x6_6_ + x6_7_ + x6_8_
   + x6_9_ + x6_n_ = 1
 R7: x7_7_ + x7_8_ + x7_9_ + x7_n_ = 1
 R8: x0_0_ + x1_0_ <= 1
 R9: x0_1_ + x1_1_ <= 1
 R10: x0_2_ + x1_2_ <= 1
 R11: x0_3_ + x1_3_ <= 1
 R12: x0_4_ + x1_4_ <= 1
 R13: x0_5_ + x1_5_ <= 1
 R14: x0_6_ + x1_6_ <= 1
 R15: x0_7_ + x1_7_ <= 1
 R16: x0_8_ + x1_8_ <= 1
 R17: x0_9_ + x1_9_ <= 1
 R18: x0_0_ + x6_0_ <= 1
 R19: x0_1_ + x6_1_ <= 1
 R20: x0_2_ + x6_2_ <= 1
 R21: x0_3_ + x6_3_ <= 1
 R22: x0_4_ + x6_4_ <= 1
 R23: x0_5_ + x6_5_ <= 1
 R24: x0_6_ + x6_6_ <= 1
 R25: x0_7_ + x6_7_ <= 1
 R26: x0_8_ + x6_8_ <= 1
 R27: x0_9_ + x6_9_ <= 1
 R28: x0_0_ + x1_0_ <= 1
 R29: x0_1_ + x1_1_ <= 1
 R30: x0_2_ + x1_2_ <= 1
 R31: x0_3_ + x1_3_ <= 1
 R32: x0_4_ + x1_4_ <= 1
 R33: x0_5_ + x1_5_ <= 1
 R34: x0_6_ + x1_6_ <= 1
 R35: x0_7_ + x1_7_ <= 1
 R36: x0_8_ + x1_8_ <= 1
 R37: x0_9_ + x1_9_ <= 1
 R38: x1_0_ + x6_0_ <= 1
 R39: x1_1_ + x6_1_ <= 1
 R40: x1_2_ + x6_2_ <= 1
 R41: x1_3_ + x6_3_ <= 1
 R42: x1_4_ + x6_4_ <= 1
 R43: x1_5_ + x6_5_ <= 1
 R44: x1_6_ + x6_6_ <= 1
 R45: x1_7_ + x6_7_ <= 1
 R46: x1_8_ + x6_8_ <= 1
 R47: x1_9_ + x6_9_ <= 1
 R48: x0_7_ + x2_7_ <= 1
 R49: x0_8_ + x2_8_ <= 1
 R50: x0_9_ + x2_9_ <= 1
 R51: x2_7_ + x4_7_ <= 1
 R52: x2_8_ + x4_8_ <= 1
 R53: x2_9_ + x4_9_ <= 1
 R54: x2_7_ + x6_7_ <= 1
 R55: x2_8_ + x6_8_ <= 1
 R56: x2_9_ + x6_9_ <= 1
 R57: x2_7_ + x7_7_ <= 1
 R58: x2_8_ + x7_8_ <= 1
 R59: x2_9_ + x7_9_ <= 1
 R60: x3_0_ + x6_0_ <= 1
 R61: x3_1_ + x6_1_ <= 1
 R62: x3_2_ + x6_2_ <= 1
 R63: x3_3_ + x6_3_ <= 1
 R64: x3_4_ + x6_4_ <= 1
 R65: x3_5_ + x6_5_ <= 1
 R66: x3_6_ + x6_6_ <= 1
 R67: x3_7_ + x6_7_ <= 1
 R68: x3_8_ + x6_8_ <= 1
 R69: x3_9_ + x6_9_ <= 1
 R70: x0_7_ + x4_7_ <= 1
 R71: x0_8_ + x4_8_ <= 1
 R72: x0_9_ + x4_9_ <= 1
 R73: x1_7_ + x4_7_ <= 1
 R74: x1_8_ + x4_8_ <= 1
 R75: x1_9_ + x4_9_ <= 1
 R76: x2_7_ + x4_7_ <= 1
 R77: x2_8_ + x4_8_ <= 1
 R78: x2_9_ + x4_9_ <= 1
 R79: x4_7_ + x6_7_ <= 1
 R80: x4_8_ + x6_8_ <= 1
 R81: x4_9_ + x6_9_ <= 1
 R82: x4_7_ + x7_7_ <= 1
 R83: x4_8_ + x7_8_ <= 1
 R84: x4_9_ + x7_9_ <= 1
 R85: x5_0_ + x6_0_ <= 1
 R86: x5_1_ + x6_1_ <= 1
 R87: x5_2_ + x6_2_ <= 1
 R88: x5_3_ + x6_3_ <= 1
 R89: x5_4_ + x6_4_ <= 1
 R90: x5_5_ + x6_5_ <= 1
 R91: x5_6_ + x6_6_ <= 1
 R92: x5_7_ + x6_7_ <= 1
 R93: x5_8_ + x6_8_ <= 1
 R94: x5_9_ + x6_9_ <= 1
 R95: x0_0_ + x6_0_ <= 1
 R96: x0_1_ + x6_1_ <= 1
 R97: x0_2_ + x6_2_ <= 1
 R98: x0_3_ + x6_3_ <= 1
 R99: x0_4_ + x6_4_ <= 1
 R100: x0_5_ + x6_5_ <= 1
 R101: x0_6_ + x6_6_ <= 1
 R102: x0_7_ + x6_7_ <= 1
 R103: x0_8_ + x6_8_ <= 1
 R104: x0_9_ + x6_9_ <= 1
 R105: x1_0_ + x6_0_ <= 1
 R106: x1_1_ + x6_1_ <= 1
 R107: x1_2_ + x6_2_ <= 1
 R108: x1_3_ + x6_3_ <= 1
 R109: x1_4_ + x6_4_ <= 1
 R110: x1_5_ + x6_5_ <= 1
 R111: x1_6_ + x6_6_ <= 1
 R112: x1_7_ + x6_7_ <= 1
 R113: x1_8_ + x6_8_ <= 1
 R114: x1_9_ + x6_9_ <= 1
 R115: x3_0_ + x6_0_ <= 1
 R116: x3_1_ + x6_1_ <= 1
 R117: x3_2_ + x6_2_ <= 1
 R118: x3_3_ + x6_3_ <= 1
 R119: x3_4_ + x6_4_ <= 1
 R120: x3_5_ + x6_5_ <= 1
 R121: x3_6_ + x6_6_ <= 1
 R122: x3_7_ + x6_7_ <= 1
 R123: x3_8_ + x6_8_ <= 1
 R124: x3_9_ + x6_9_ <= 1
 R125: x5_0_ + x6_0_ <= 1
 R126: x5_1_ + x6_1_ <= 1
 R127: x5_2_ + x6_2_ <= 1
 R128: x5_3_ + x6_3_ <= 1
 R129: x5_4_ + x6_4_ <= 1
 R130: x5_5_ + x6_5_ <= 1
 R131: x5_6_ + x6_6_ <= 1
 R132: x5_7_ + x6_7_ <= 1
 R133: x5_8_ + x6_8_ <= 1
 R134: x5_9_ + x6_9_ <= 1
 R135: x2_7_ + x7_7_ <= 1
 R136: x2_8_ + x7_8_ <= 1
 R137: x2_9_ + x7_9_ <= 1
 R138: x4_7_ + x7_7_ <= 1
 R139: x4_8_ + x7_8_ <= 1
 R140: x4_9_ + x7_9_ <= 1
 R141: x6_7_ + x7_7_ <= 1
 R142: x6_8_ + x7_8_ <= 1
 R143: x6_9_ + x7_9_ <= 1
 R144: 27 x0_0_ + 27 x0_1_ + 27 x0_2_ + 27 x0_3_ + 27 x0_4_ + 27 x0_5_
   + 21 x0_6_ + 6 x0_7_ + 6 x0_8_ + 6 x0_9_ + 9 x1_0_ + 9 x1_1_ + 9 x1_2_
   + 9 x1_3_ + 9 x1_4_ + 9 x1_5_ + 7 x1_6_ + 2 x1_7_ + 2 x1_8_ + 2 x1_9_
   + 34 x2_7_ + 34 x2_8_ + 34 x2_9_ + 9 x3_0_ + 9 x3_1_ + 9 x3_2_ + 9 x3_3_
   + 9 x3_4_ + 9 x3_5_ + 7 x3_6_ + 2 x3_7_ + 2 x3_8_ + 2 x3_9_ + 51 x4_7_
   + 51 x4_8_ + 51 x4_9_ + 9 x5_0_ + 9 x5_1_ + 9 x5_2_ + 9 x5_3_ + 9 x5_4_
   + 9 x5_5_ + 7 x5_6_ + 2 x5_7_ + 2 x5_8_ + 2 x5_9_ + 81 x6_0_ + 81 x6_1_
   + 81 x6_2_ + 81 x6_3_ + 81 x6_4_ + 81 x6_5_ + 63 x6_6_ + 18 x6_7_
   + 18 x6_8_ + 18 x6_9_ + 17 x7_7_ + 17 x7_8_ + 17 x7_9_ >= 237
 R145: x0_4_ + x1_0_ + x2_9_ + x3_4_ + x4_7_ + x5_4_ + x6_3_ + x7_8_ <= 7
 R146: x0_2_ + x1_1_ + x2_7_ + x3_2_ + x4_8_ + x5_4_ + x6_5_ + x7_9_ <= 7
Bounds
Binaries
 x0_0_ x0_1_ x0_2_ x0_3_ x0_4_ x0_5_ x0_6_ x0_7_ x0_8_ x0_9_ x0_n_ x1_0_
 x1_1_ x1_2_ x1_3_ x1_4_ x1_5_ x1_6_ x1_7_ x1_8_ x1_9_ x1_n_ x2_7_ x2_8_
 x2_9_ x2_n_ x3_0_ x3_1_ x3_2_ x3_3_ x3_4_ x3_5_ x3_6_ x3_7_ x3_8_ x3_9_
 x3_n_ x4_7_ x4_8_ x4_9_ x4_n_ x5_0_ x5_1_ x5_2_ x5_3_ x5_4_ x5_5_ x5_6_
 x5_7_ x5_8_ x5_9_ x5_n_ x6_0_ x6_1_ x6_2_ x6_3_ x6_4_ x6_5_ x6_6_ x6_7_
 x6_8_ x6_9_ x6_n_ x7_7_ x7_8_ x7_9_ x7_n_
End
